p wcnf 110 133 134 
1 46 -33 0 
1 -20 25 0 
1 -65 -88 0 
1 -65 -9 0 
1 -39 -99 0 
1 -94 23 0 
1 86 14 0 
1 83 5 0 
1 66 -81 0 
1 107 -65 0 
1 -90 94 0 
1 48 71 0 
1 31 -55 0 
1 58 -79 0 
1 98 -67 0 
1 64 102 0 
1 -104 -74 0 
1 -30 86 0 
1 -20 -72 0 
1 86 93 0 
1 -100 34 0 
1 -106 -70 0 
1 -98 79 0 
1 -29 7 0 
1 31 75 0 
1 -72 105 0 
1 -64 -2 0 
1 -18 46 0 
1 -86 -34 0 
1 29 -41 0 
1 -13 80 0 
1 30 46 0 
1 -57 -100 0 
1 -26 27 0 
1 57 91 0 
1 -78 -68 0 
1 101 -90 0 
1 51 34 0 
1 19 83 0 
1 69 47 0 
1 -31 -96 0 
1 -9 -104 0 
1 74 22 0 
1 4 -62 0 
1 28 106 0 
1 -30 -73 0 
1 54 -16 0 
1 62 71 0 
1 48 28 0 
1 -80 108 0 
1 -41 6 0 
1 8 -47 0 
1 93 6 0 
1 -4 -102 0 
1 86 -80 0 
1 -84 70 0 
1 -110 -102 0 
1 -42 27 0 
1 104 4 0 
1 -103 -54 0 
1 72 59 0 
1 96 -30 0 
1 84 38 0 
1 -30 -82 0 
1 19 -12 0 
1 56 -85 0 
1 -90 -68 0 
1 -38 -46 0 
1 8 -104 0 
1 11 1 0 
1 -26 106 0 
1 47 -73 0 
1 78 -101 0 
1 -3 25 0 
1 -42 36 0 
1 -106 24 0 
1 4 -101 0 
1 41 37 0 
1 73 4 0 
1 70 -80 0 
1 -62 -88 0 
1 65 -90 0 
1 22 -92 0 
1 76 31 0 
1 -19 110 0 
1 -14 41 0 
1 15 -72 0 
1 -40 52 0 
1 -20 -8 0 
1 -5 31 0 
1 -9 -106 0 
1 88 18 0 
1 -79 -70 0 
1 -44 21 0 
1 15 -4 0 
1 43 -12 0 
1 73 -61 0 
1 53 25 0 
1 -86 -98 0 
1 -23 30 0 
1 64 -98 0 
1 82 1 0 
1 1 -11 0 
1 -91 -52 0 
1 -7 -39 0 
1 61 23 0 
1 9 102 0 
1 106 -36 0 
1 20 -79 0 
1 -65 105 0 
1 -5 -13 0 
1 63 -21 0 
1 33 68 0 
1 96 -48 0 
1 -103 73 0 
1 47 -26 0 
1 44 -96 0 
1 8 -66 0 
1 -5 -13 0 
1 9 78 0 
1 -79 -16 0 
1 3 94 0 
1 81 59 0 
1 72 -39 0 
1 105 -41 0 
1 16 97 0 
1 12 5 0 
1 79 4 0 
1 -29 -67 0 
1 -109 -53 0 
1 -74 101 0 
1 98 -93 0 
1 -91 -8 0 
